88 3 33 32 66 37 80 9 81 50 56 59 75 68 24 61 67 74 11 54 38 6 92 97 77 34 76 49 39 16 83 19 57 73 20 46 10 23 79 43 5 21 25 65 7 85 44 47 95 18 30 96 78 93 58 27 48 31 84 64 60 87 45 53 62 1 51 99 4 8 22 86 35 29 98 82 91 52 41 63 42 71 55 14 17 90 40 0 13 26 2 94 70 15 72 28 12 89 36 69 

